\ This file has been generated by DOcplex
\ ENCODING=ISO-8859-1
\Problem name: {self.PROBLEM.name} LEADER SOTA problem

Maximize
 obj: V
Subject To
 c1: V - 2.929360032285 a0_0 - 3.213484200066 a0_1 <= 0
 c2: V - 2.853142589491 a0_0 - 3.092614246789 a0_1 <= 0
 c3: a0_0 + a0_1 = 1

Bounds
       a0_0 <= 1
       a0_1 <= 1
       V Free
End
